1796650
0 11 10465
11 31 4813
31 55 1427
55 39 3489
39 4 3130
4 59 7979
59 28 6419
28 24 9940
24 29 1249
29 40 5056
40 5 10602
5 22 16175
22 48 4353
48 18 8895
18 41 27461
41 60 10110
60 23 5437
23 2 17954
2 20 17216
20 37 42598
37 66 15200
66 63 14572
63 6 31078
6 33 42208
33 54 20835
54 45 30985
45 42 69394
42 10 99066
10 65 13370
65 25 57991
25 64 185977
64 44 16726
44 26 8214
26 16 1445
16 8 5356
8 57 1777
57 14 6904
14 7 6874
7 1 30462
1 67 59312
67 34 19070
34 50 8926
50 38 11004
38 61 8740
61 36 30446
36 52 6554
52 43 84806
43 9 75759
9 17 28652
17 56 27906
56 32 88918
32 13 124360
13 51 39276
51 21 46274
21 30 39447
30 27 65445
27 49 10810
49 35 24707
35 58 8563
58 15 10880
15 62 14689
62 47 23516
47 3 7248
3 19 4440
19 46 12843
46 12 9114
12 53 13536
53 0 18207
